
n = 144; % the number of jobs
m = 24; % the number of cores
h = 4;

% cpi values of each job
cpi = [ 2.32528,2.69661,2.33489,2.61968,1.39219,0.631348,2.14457,2.09786,2.0156,1.40994,1.98032,2.35171,2.14681,5.51269,0.508952,0.535891,0.5,2.79566,3.22107,2.76887,0.692256,1.46167,0.850599,3.00553,2.23892,1.87871,1.2304,2.62408,1.53786,2.49003,2.48813,1.34152,1.20766,2.56005,2.63035,1.77229,2.66158,1.90349,1.20222,0.5,2.9669,2.76581,1.98381,1.59411,2.21138,1.7083,2.1388,2.3636,2.19001,0.5,4.03973,1.23369,3.32551,0.711065,3.24643,1.1781,4.52644,1.21575,0.964015,0.869259,0.938447,3.922,0.843693,1.07256,1.25476,3.96854,1.39503,3.56897,0.5,2.38786,2.90278,1.24536,2.93462,0.896481,1.06807,2.45856,1.87207,2.7702,1.69628,2.78384,1.12446,0.5,4.4353,1.46012,2.38702,1.72511,2.41288,0.580633,2.60767,2.28668,3.58483,1.62044,2.45795,1.4516,1.25484,1.63034,0.91103,2.63715,3.19185,2.24391,1.0621,1.95395,1.32327,1.66125,1.74398,2.48313,2.38041,2.40796,2.4193,1.97648,3.89831,1.45677,1.43626,0.812887,1.06923,2.69108,2.69001,2.40738,0.5,2.6423,2.42072,2.2702,2.33269,1.11317,2.14266,1.72055,1.81811,2.32174,0.5,1.62056,3.11018,2.62942,0.707084,5.29154,0.5,1.5014,0.779448,3.22052,0.5,1.39923,2.29096,2.96028,0.653012,4.19651,];

feature_idx = [|
-1, -2, -2, -2, -2, -2, -2, -2, -2, -2, -2, -2, -2, -2, -2, -2, -2, -2, -2, -2, -2, -2, -2, -2, -2, -2, -2,|
1, 3, -1, 2, -1, -1, -1, -2, -2, -2, -2, -2, -2, -2, -2, -2, -2, -2, -2, -2, -2, -2, -2, -2, -2, -2, -2,|
1, 3, -1, 2, 3, 1, -1, 2, -1, 4, 3, 4, -1, -1, -1, -1, -1, 1, -1, 3, -1, 1, -1, 3, -1, -1, -1,|
2, 3, -1, 1, -1, -1, 1, 3, -1, -1, 1, -1, -1, -2, -2, -2, -2, -2, -2, -2, -2, -2, -2, -2, -2, -2, -2,|
1, 3, -1, 2, -1, 4, -1, 1, -1, 3, 4, -1, 3, 3, -1, -1, -1, -1, -1, -2, -2, -2, -2, -2, -2, -2, -2,|
-1, -2, -2, -2, -2, -2, -2, -2, -2, -2, -2, -2, -2, -2, -2, -2, -2, -2, -2, -2, -2, -2, -2, -2, -2, -2, -2,|
2, 1, -1, -1, 4, 3, 4, 1, -1, 3, -1, -1, 1, -1, -1, -1, 3, -1, 3, -1, -1, -2, -2, -2, -2, -2, -2,|
1, 1, -1, -1, 2, -1, 3, 2, -1, 3, -1, -1, 3, -1, 3, -1, 3, 3, 3, 1, -1, -1, 1, -1, -1, -1, -1,|
1, 1, 1, -1, 4, 3, -1, 2, -1, 3, -1, -1, -1, -1, 2, 4, -1, 1, -1, -1, -1, -2, -2, -2, -2, -2, -2,|
1, 1, -1, -1, 2, 3, -1, -1, -1, -2, -2, -2, -2, -2, -2, -2, -2, -2, -2, -2, -2, -2, -2, -2, -2, -2, -2,|
1, 1, 1, -1, 2, 2, -1, -1, 3, 3, -1, 3, -1, 3, -1, 3, -1, 3, -1, -1, -1, 3, -1, -1, -1, -2, -2,|
2, 1, 1, -1, 4, 4, -1, 3, 3, 3, -1, -1, 1, -1, -1, -1, -1, -1, -1, -2, -2, -2, -2, -2, -2, -2, -2,|
2, -1, -1, -2, -2, -2, -2, -2, -2, -2, -2, -2, -2, -2, -2, -2, -2, -2, -2, -2, -2, -2, -2, -2, -2, -2, -2,|
1, 1, -1, -1, 3, 2, 3, 3, 1, 1, -1, -1, 3, -1, -1, -1, -1, -1, -1, -2, -2, -2, -2, -2, -2, -2, -2,|
1, 1, -1, -1, 3, 2, -1, -1, 1, -1, -1, -2, -2, -2, -2, -2, -2, -2, -2, -2, -2, -2, -2, -2, -2, -2, -2,|
1, 1, -1, -1, 3, -1, 2, 3, -1, 4, -1, -1, -1, -2, -2, -2, -2, -2, -2, -2, -2, -2, -2, -2, -2, -2, -2,|
1, 1, 1, -1, 2, 3, -1, -1, -1, 2, 1, -1, -1, -1, -1, -2, -2, -2, -2, -2, -2, -2, -2, -2, -2, -2, -2,|
2, 1, 1, -1, 3, 3, -1, -1, 4, -1, -1, -1, -1, -2, -2, -2, -2, -2, -2, -2, -2, -2, -2, -2, -2, -2, -2,|
2, 3, 1, -1, 1, 4, -1, -1, -1, 3, -1, -1, -1, -2, -2, -2, -2, -2, -2, -2, -2, -2, -2, -2, -2, -2, -2,|
1, 1, -1, -1, 2, 3, -1, -1, -1, -2, -2, -2, -2, -2, -2, -2, -2, -2, -2, -2, -2, -2, -2, -2, -2, -2, -2,|
1, 1, 1, -1, 2, 3, -1, 3, -1, 2, -1, -1, 3, -1, -1, 1, 3, -1, -1, -1, -1, -2, -2, -2, -2, -2, -2,|
1, 1, -1, -1, 2, -1, -1, -2, -2, -2, -2, -2, -2, -2, -2, -2, -2, -2, -2, -2, -2, -2, -2, -2, -2, -2, -2,|
1, -1, 1, 3, -1, -1, 2, 3, -1, -1, 3, -1, 3, -1, 3, -1, -1, -2, -2, -2, -2, -2, -2, -2, -2, -2, -2,|
2, -1, -1, -2, -2, -2, -2, -2, -2, -2, -2, -2, -2, -2, -2, -2, -2, -2, -2, -2, -2, -2, -2, -2, -2, -2, -2,|];

feature_rel = [|
LEAF, DUM, DUM, DUM, DUM, DUM, DUM, DUM, DUM, DUM, DUM, DUM, DUM, DUM, DUM, DUM, DUM, DUM, DUM, DUM, DUM, DUM, DUM, DUM, DUM, DUM, DUM,|
LE, LE, LEAF, LE, LEAF, LEAF, LEAF, DUM, DUM, DUM, DUM, DUM, DUM, DUM, DUM, DUM, DUM, DUM, DUM, DUM, DUM, DUM, DUM, DUM, DUM, DUM, DUM,|
LE, LE, LEAF, LE, LE, LE, LEAF, LE, LEAF, LE, LE, LE, LEAF, LEAF, LEAF, LEAF, LEAF, LE, LEAF, LE, LEAF, LE, LEAF, LE, LEAF, LEAF, LEAF,|
LE, LE, LEAF, LE, LEAF, LEAF, LE, LE, LEAF, LEAF, LE, LEAF, LEAF, DUM, DUM, DUM, DUM, DUM, DUM, DUM, DUM, DUM, DUM, DUM, DUM, DUM, DUM,|
LE, LE, LEAF, LE, LEAF, LE, LEAF, LE, LEAF, LE, LE, LEAF, LE, LE, LEAF, LEAF, LEAF, LEAF, LEAF, DUM, DUM, DUM, DUM, DUM, DUM, DUM, DUM,|
LEAF, DUM, DUM, DUM, DUM, DUM, DUM, DUM, DUM, DUM, DUM, DUM, DUM, DUM, DUM, DUM, DUM, DUM, DUM, DUM, DUM, DUM, DUM, DUM, DUM, DUM, DUM,|
LE, LE, LEAF, LEAF, LE, LE, LE, LE, LEAF, LE, LEAF, LEAF, LE, LEAF, LEAF, LEAF, LE, LEAF, LE, LEAF, LEAF, DUM, DUM, DUM, DUM, DUM, DUM,|
LE, LE, LEAF, LEAF, LE, LEAF, LE, LE, LEAF, LE, LEAF, LEAF, LE, LEAF, LE, LEAF, LE, LE, LE, LE, LEAF, LEAF, LE, LEAF, LEAF, LEAF, LEAF,|
LE, LE, LE, LEAF, LE, LE, LEAF, LE, LEAF, LE, LEAF, LEAF, LEAF, LEAF, LE, LE, LEAF, LE, LEAF, LEAF, LEAF, DUM, DUM, DUM, DUM, DUM, DUM,|
LE, LE, LEAF, LEAF, LE, LE, LEAF, LEAF, LEAF, DUM, DUM, DUM, DUM, DUM, DUM, DUM, DUM, DUM, DUM, DUM, DUM, DUM, DUM, DUM, DUM, DUM, DUM,|
LE, LE, LE, LEAF, LE, LE, LEAF, LEAF, LE, LE, LEAF, LE, LEAF, LE, LEAF, LE, LEAF, LE, LEAF, LEAF, LEAF, LE, LEAF, LEAF, LEAF, DUM, DUM,|
LE, LE, LE, LEAF, LE, LE, LEAF, LE, LE, LE, LEAF, LEAF, LE, LEAF, LEAF, LEAF, LEAF, LEAF, LEAF, DUM, DUM, DUM, DUM, DUM, DUM, DUM, DUM,|
LE, LEAF, LEAF, DUM, DUM, DUM, DUM, DUM, DUM, DUM, DUM, DUM, DUM, DUM, DUM, DUM, DUM, DUM, DUM, DUM, DUM, DUM, DUM, DUM, DUM, DUM, DUM,|
LE, LE, LEAF, LEAF, LE, LE, LE, LE, LE, LE, LEAF, LEAF, LE, LEAF, LEAF, LEAF, LEAF, LEAF, LEAF, DUM, DUM, DUM, DUM, DUM, DUM, DUM, DUM,|
LE, LE, LEAF, LEAF, LE, LE, LEAF, LEAF, LE, LEAF, LEAF, DUM, DUM, DUM, DUM, DUM, DUM, DUM, DUM, DUM, DUM, DUM, DUM, DUM, DUM, DUM, DUM,|
LE, LE, LEAF, LEAF, LE, LEAF, LE, LE, LEAF, LE, LEAF, LEAF, LEAF, DUM, DUM, DUM, DUM, DUM, DUM, DUM, DUM, DUM, DUM, DUM, DUM, DUM, DUM,|
LE, LE, LE, LEAF, LE, LE, LEAF, LEAF, LEAF, LE, LE, LEAF, LEAF, LEAF, LEAF, DUM, DUM, DUM, DUM, DUM, DUM, DUM, DUM, DUM, DUM, DUM, DUM,|
LE, LE, LE, LEAF, LE, LE, LEAF, LEAF, LE, LEAF, LEAF, LEAF, LEAF, DUM, DUM, DUM, DUM, DUM, DUM, DUM, DUM, DUM, DUM, DUM, DUM, DUM, DUM,|
LE, LE, LE, LEAF, LE, LE, LEAF, LEAF, LEAF, LE, LEAF, LEAF, LEAF, DUM, DUM, DUM, DUM, DUM, DUM, DUM, DUM, DUM, DUM, DUM, DUM, DUM, DUM,|
LE, LE, LEAF, LEAF, LE, LE, LEAF, LEAF, LEAF, DUM, DUM, DUM, DUM, DUM, DUM, DUM, DUM, DUM, DUM, DUM, DUM, DUM, DUM, DUM, DUM, DUM, DUM,|
LE, LE, LE, LEAF, LE, LE, LEAF, LE, LEAF, LE, LEAF, LEAF, LE, LEAF, LEAF, LE, LE, LEAF, LEAF, LEAF, LEAF, DUM, DUM, DUM, DUM, DUM, DUM,|
LE, LE, LEAF, LEAF, LE, LEAF, LEAF, DUM, DUM, DUM, DUM, DUM, DUM, DUM, DUM, DUM, DUM, DUM, DUM, DUM, DUM, DUM, DUM, DUM, DUM, DUM, DUM,|
LE, LEAF, LE, LE, LEAF, LEAF, LE, LE, LEAF, LEAF, LE, LEAF, LE, LEAF, LE, LEAF, LEAF, DUM, DUM, DUM, DUM, DUM, DUM, DUM, DUM, DUM, DUM,|
LE, LEAF, LEAF, DUM, DUM, DUM, DUM, DUM, DUM, DUM, DUM, DUM, DUM, DUM, DUM, DUM, DUM, DUM, DUM, DUM, DUM, DUM, DUM, DUM, DUM, DUM, DUM,|];

feature_val = [|
-1, -2, -2, -2, -2, -2, -2, -2, -2, -2, -2, -2, -2, -2, -2, -2, -2, -2, -2, -2, -2, -2, -2, -2, -2, -2, -2,|
0.695117, 9.148936, -1, 2.000000, -1, -1, -1, -2, -2, -2, -2, -2, -2, -2, -2, -2, -2, -2, -2, -2, -2, -2, -2, -2, -2, -2, -2,|
1.009788, 9.574468, -1, 2.000000, 20.297872, 0.793724, -1, 2.000000, -1, 10.000000, 2.510638, 2.000000, -1, -1, -1, -1, -1, 0.632370, -1, 11.276596, -1, 0.514008, -1, 10.510638, -1, -1, -1,|
2.000000, 9.659574, -1, 0.708918, -1, -1, 1.094450, 2.510638, -1, -1, 0.916091, -1, -1, -2, -2, -2, -2, -2, -2, -2, -2, -2, -2, -2, -2, -2, -2,|
0.725710, 9.574468, -1, 2.000000, -1, 10.000000, -1, 0.513159, -1, 9.148936, 2.000000, -1, 9.489362, 2.851064, -1, -1, -1, -1, -1, -2, -2, -2, -2, -2, -2, -2, -2,|
-1, -2, -2, -2, -2, -2, -2, -2, -2, -2, -2, -2, -2, -2, -2, -2, -2, -2, -2, -2, -2, -2, -2, -2, -2, -2, -2,|
2.000000, 1.034560, -1, -1, 2.000000, 21.234043, 10.000000, 1.574805, -1, 10.000000, -1, -1, 1.640685, -1, -1, -1, 9.659574, -1, 11.276596, -1, -1, -2, -2, -2, -2, -2, -2,|
3.452812, 1.603116, -1, -1, 2.000000, -1, 19.276596, 10.000000, -1, 2.680851, -1, -1, 5.404255, -1, 9.063830, -1, 12.042553, 10.340426, 19.021277, 2.609069, -1, -1, 2.458023, -1, -1, -1, -1,|
2.114625, 1.811556, 4.428939, -1, 10.000000, 19.021277, -1, 10.000000, -1, 2.680851, -1, -1, -1, -1, 10.000000, 2.000000, -1, 3.394520, -1, -1, -1, -2, -2, -2, -2, -2, -2,|
3.298401, 1.842257, -1, -1, 10.000000, 19.276596, -1, -1, -1, -2, -2, -2, -2, -2, -2, -2, -2, -2, -2, -2, -2, -2, -2, -2, -2, -2, -2,|
2.341416, 1.732537, 3.642399, -1, 2.000000, 10.000000, -1, -1, 9.319149, 19.276596, -1, 5.404255, -1, 12.042553, -1, 2.425532, -1, 9.319149, -1, -1, -1, 5.404255, -1, -1, -1, -2, -2,|
2.000000, 1.014862, 0.693536, -1, 2.000000, 2.000000, -1, 20.382979, 2.851064, 20.297872, -1, -1, 1.062035, -1, -1, -1, -1, -1, -1, -2, -2, -2, -2, -2, -2, -2, -2,|
2.000000, -1, -1, -2, -2, -2, -2, -2, -2, -2, -2, -2, -2, -2, -2, -2, -2, -2, -2, -2, -2, -2, -2, -2, -2, -2, -2,|
3.681347, 1.903458, -1, -1, 19.276596, 10.000000, 20.297872, 10.340426, 2.678329, 2.342231, -1, -1, 12.042553, -1, -1, -1, -1, -1, -1, -2, -2, -2, -2, -2, -2, -2, -2,|
4.652854, 2.469678, -1, -1, 20.297872, 10.000000, -1, -1, 3.227995, -1, -1, -2, -2, -2, -2, -2, -2, -2, -2, -2, -2, -2, -2, -2, -2, -2, -2,|
4.171628, 2.542306, -1, -1, 10.340426, -1, 10.000000, 20.297872, -1, 2.000000, -1, -1, -1, -2, -2, -2, -2, -2, -2, -2, -2, -2, -2, -2, -2, -2, -2,|
2.898146, 1.876420, 4.105475, -1, 10.000000, 3.702128, -1, -1, -1, 10.000000, 4.061461, -1, -1, -1, -1, -2, -2, -2, -2, -2, -2, -2, -2, -2, -2, -2, -2,|
2.000000, 1.353294, 0.693950, -1, 9.829787, 3.276596, -1, -1, 2.000000, -1, -1, -1, -1, -2, -2, -2, -2, -2, -2, -2, -2, -2, -2, -2, -2, -2, -2,|
2.000000, 21.148936, 0.592703, -1, 1.079423, 2.000000, -1, -1, -1, 20.723404, -1, -1, -1, -2, -2, -2, -2, -2, -2, -2, -2, -2, -2, -2, -2, -2, -2,|
4.494662, 2.706829, -1, -1, 10.000000, 19.957447, -1, -1, -1, -2, -2, -2, -2, -2, -2, -2, -2, -2, -2, -2, -2, -2, -2, -2, -2, -2, -2,|
4.977754, 2.646030, 6.020970, -1, 10.000000, 10.340426, -1, 10.000000, -1, 10.000000, -1, -1, 12.042553, -1, -1, 3.816425, 20.978723, -1, -1, -1, -1, -2, -2, -2, -2, -2, -2,|
4.832098, 3.250847, -1, -1, 10.000000, -1, -1, -2, -2, -2, -2, -2, -2, -2, -2, -2, -2, -2, -2, -2, -2, -2, -2, -2, -2, -2, -2,|
3.122455, -1, 5.028283, 3.361702, -1, -1, 10.000000, 5.404255, -1, -1, 9.319149, -1, 12.042553, -1, 19.021277, -1, -1, -2, -2, -2, -2, -2, -2, -2, -2, -2, -2,|
2.000000, -1, -1, -2, -2, -2, -2, -2, -2, -2, -2, -2, -2, -2, -2, -2, -2, -2, -2, -2, -2, -2, -2, -2, -2, -2, -2,|];

child = [|
-1, -2, -2, -2, -2, -2, -2, -2, -2, -2, -2, -2, -2, -2, -2, -2, -2, -2, -2, -2, -2, -2, -2, -2, -2, -2, -2,|
2, 4, -1, 6, -1, -1, -1, -2, -2, -2, -2, -2, -2, -2, -2, -2, -2, -2, -2, -2, -2, -2, -2, -2, -2, -2, -2,|
2, 4, -1, 6, 8, 10, -1, 12, -1, 14, 16, 18, -1, -1, -1, -1, -1, 20, -1, 22, -1, 24, -1, 26, -1, -1, -1,|
2, 4, -1, 6, -1, -1, 8, 10, -1, -1, 12, -1, -1, -2, -2, -2, -2, -2, -2, -2, -2, -2, -2, -2, -2, -2, -2,|
2, 4, -1, 6, -1, 8, -1, 10, -1, 12, 14, -1, 16, 18, -1, -1, -1, -1, -1, -2, -2, -2, -2, -2, -2, -2, -2,|
-1, -2, -2, -2, -2, -2, -2, -2, -2, -2, -2, -2, -2, -2, -2, -2, -2, -2, -2, -2, -2, -2, -2, -2, -2, -2, -2,|
2, 4, -1, -1, 6, 8, 10, 12, -1, 14, -1, -1, 16, -1, -1, -1, 18, -1, 20, -1, -1, -2, -2, -2, -2, -2, -2,|
2, 4, -1, -1, 6, -1, 8, 10, -1, 12, -1, -1, 14, -1, 16, -1, 18, 20, 22, 24, -1, -1, 26, -1, -1, -1, -1,|
2, 4, 6, -1, 8, 10, -1, 12, -1, 14, -1, -1, -1, -1, 16, 18, -1, 20, -1, -1, -1, -2, -2, -2, -2, -2, -2,|
2, 4, -1, -1, 6, 8, -1, -1, -1, -2, -2, -2, -2, -2, -2, -2, -2, -2, -2, -2, -2, -2, -2, -2, -2, -2, -2,|
2, 4, 6, -1, 8, 10, -1, -1, 12, 14, -1, 16, -1, 18, -1, 20, -1, 22, -1, -1, -1, 24, -1, -1, -1, -2, -2,|
2, 4, 6, -1, 8, 10, -1, 12, 14, 16, -1, -1, 18, -1, -1, -1, -1, -1, -1, -2, -2, -2, -2, -2, -2, -2, -2,|
2, -1, -1, -2, -2, -2, -2, -2, -2, -2, -2, -2, -2, -2, -2, -2, -2, -2, -2, -2, -2, -2, -2, -2, -2, -2, -2,|
2, 4, -1, -1, 6, 8, 10, 12, 14, 16, -1, -1, 18, -1, -1, -1, -1, -1, -1, -2, -2, -2, -2, -2, -2, -2, -2,|
2, 4, -1, -1, 6, 8, -1, -1, 10, -1, -1, -2, -2, -2, -2, -2, -2, -2, -2, -2, -2, -2, -2, -2, -2, -2, -2,|
2, 4, -1, -1, 6, -1, 8, 10, -1, 12, -1, -1, -1, -2, -2, -2, -2, -2, -2, -2, -2, -2, -2, -2, -2, -2, -2,|
2, 4, 6, -1, 8, 10, -1, -1, -1, 12, 14, -1, -1, -1, -1, -2, -2, -2, -2, -2, -2, -2, -2, -2, -2, -2, -2,|
2, 4, 6, -1, 8, 10, -1, -1, 12, -1, -1, -1, -1, -2, -2, -2, -2, -2, -2, -2, -2, -2, -2, -2, -2, -2, -2,|
2, 4, 6, -1, 8, 10, -1, -1, -1, 12, -1, -1, -1, -2, -2, -2, -2, -2, -2, -2, -2, -2, -2, -2, -2, -2, -2,|
2, 4, -1, -1, 6, 8, -1, -1, -1, -2, -2, -2, -2, -2, -2, -2, -2, -2, -2, -2, -2, -2, -2, -2, -2, -2, -2,|
2, 4, 6, -1, 8, 10, -1, 12, -1, 14, -1, -1, 16, -1, -1, 18, 20, -1, -1, -1, -1, -2, -2, -2, -2, -2, -2,|
2, 4, -1, -1, 6, -1, -1, -2, -2, -2, -2, -2, -2, -2, -2, -2, -2, -2, -2, -2, -2, -2, -2, -2, -2, -2, -2,|
2, -1, 4, 6, -1, -1, 8, 10, -1, -1, 12, -1, 14, -1, 16, -1, -1, -2, -2, -2, -2, -2, -2, -2, -2, -2, -2,|
2, -1, -1, -2, -2, -2, -2, -2, -2, -2, -2, -2, -2, -2, -2, -2, -2, -2, -2, -2, -2, -2, -2, -2, -2, -2, -2,|];

val = [|
1, -2, -2, -2, -2, -2, -2, -2, -2, -2, -2, -2, -2, -2, -2, -2, -2, -2, -2, -2, -2, -2, -2, -2, -2, -2, -2,|
-1, -1, 1, -1, 1, 0, 1, -2, -2, -2, -2, -2, -2, -2, -2, -2, -2, -2, -2, -2, -2, -2, -2, -2, -2, -2, -2,|
-1, -1, 1, -1, -1, -1, 1, -1, 1, -1, -1, -1, 1, 0, 1, 0, 1, -1, 1, -1, 1, -1, 0, -1, 1, 0, 1,|
-1, -1, 1, -1, 1, 0, -1, -1, 1, 0, -1, 1, 0, -2, -2, -2, -2, -2, -2, -2, -2, -2, -2, -2, -2, -2, -2,|
-1, -1, 1, -1, 1, -1, 1, -1, 1, -1, -1, 0, -1, -1, 1, 1, 0, 0, 1, -2, -2, -2, -2, -2, -2, -2, -2,|
1, -2, -2, -2, -2, -2, -2, -2, -2, -2, -2, -2, -2, -2, -2, -2, -2, -2, -2, -2, -2, -2, -2, -2, -2, -2, -2,|
-1, -1, 1, 0, -1, -1, -1, -1, 1, -1, 1, 0, -1, 0, 1, 1, -1, 0, -1, 1, 0, -2, -2, -2, -2, -2, -2,|
-1, -1, 1, 0, -1, 0, -1, -1, 1, -1, 1, 0, -1, 1, -1, 0, -1, -1, -1, -1, 1, 0, -1, 0, 1, 0, 1,|
-1, -1, -1, 0, -1, -1, 1, -1, 1, -1, 1, 0, 1, 0, -1, -1, 1, -1, 1, 0, 1, -2, -2, -2, -2, -2, -2,|
-1, -1, 1, 0, -1, -1, 1, 0, 1, -2, -2, -2, -2, -2, -2, -2, -2, -2, -2, -2, -2, -2, -2, -2, -2, -2, -2,|
-1, -1, -1, 0, -1, -1, 1, 0, -1, -1, 1, -1, 1, -1, 1, -1, 0, -1, 0, 0, 1, -1, 1, 1, 0, -2, -2,|
-1, -1, -1, 0, -1, -1, 1, -1, -1, -1, 1, 0, -1, 0, 1, 0, 1, 0, 1, -2, -2, -2, -2, -2, -2, -2, -2,|
-1, 0, 1, -2, -2, -2, -2, -2, -2, -2, -2, -2, -2, -2, -2, -2, -2, -2, -2, -2, -2, -2, -2, -2, -2, -2, -2,|
-1, -1, 1, 0, -1, -1, -1, -1, -1, -1, 1, 0, -1, 0, 1, 0, 1, 1, 0, -2, -2, -2, -2, -2, -2, -2, -2,|
-1, -1, 1, 0, -1, -1, 1, 0, -1, 0, 1, -2, -2, -2, -2, -2, -2, -2, -2, -2, -2, -2, -2, -2, -2, -2, -2,|
-1, -1, 1, 0, -1, 0, -1, -1, 1, -1, 1, 0, 1, -2, -2, -2, -2, -2, -2, -2, -2, -2, -2, -2, -2, -2, -2,|
-1, -1, -1, 0, -1, -1, 1, 0, 1, -1, -1, 0, 1, 1, 0, -2, -2, -2, -2, -2, -2, -2, -2, -2, -2, -2, -2,|
-1, -1, -1, 0, -1, -1, 1, 0, -1, 0, 1, 0, 1, -2, -2, -2, -2, -2, -2, -2, -2, -2, -2, -2, -2, -2, -2,|
-1, -1, -1, 0, -1, -1, 1, 0, 1, -1, 1, 0, 1, -2, -2, -2, -2, -2, -2, -2, -2, -2, -2, -2, -2, -2, -2,|
-1, -1, 1, 0, -1, -1, 1, 0, 1, -2, -2, -2, -2, -2, -2, -2, -2, -2, -2, -2, -2, -2, -2, -2, -2, -2, -2,|
-1, -1, -1, 0, -1, -1, 1, -1, 1, -1, 1, 0, -1, 0, 1, -1, -1, 0, 1, 0, 1, -2, -2, -2, -2, -2, -2,|
-1, -1, 1, 0, -1, 0, 1, -2, -2, -2, -2, -2, -2, -2, -2, -2, -2, -2, -2, -2, -2, -2, -2, -2, -2, -2, -2,|
-1, 0, -1, -1, 1, 0, -1, -1, 1, 1, -1, 0, -1, 1, -1, 0, 1, -2, -2, -2, -2, -2, -2, -2, -2, -2, -2,|
-1, 0, 1, -2, -2, -2, -2, -2, -2, -2, -2, -2, -2, -2, -2, -2, -2, -2, -2, -2, -2, -2, -2, -2, -2, -2, -2,|];


